presolving:
(round 1, fast)       0 del vars, 45360 del conss, 0 add conss, 45360 chg bounds, 0 chg sides, 0 chg coeffs, 0 upgd conss, 0 impls, 0 clqs
   (0.6s) running MILP presolver
   (0.7s) MILP presolver found nothing
(round 2, exhaustive) 0 del vars, 45360 del conss, 0 add conss, 45360 chg bounds, 0 chg sides, 0 chg coeffs, 45360 upgd conss, 0 impls, 0 clqs
   (1.8s) probing: 51/54 (94.4%) - 0 fixings, 0 aggregations, 0 implications, 0 bound changes
   (1.8s) probing aborted: 50/50 successive totally useless probings
   (1.9s) symmetry computation started: requiring (bin +, int -, cont +), (fixed: bin -, int +, cont -)
   (2.1s) no symmetry present
presolving (3 rounds: 3 fast, 2 medium, 2 exhaustive):
 0 deleted vars, 45360 deleted constraints, 0 added constraints, 45360 tightened bounds, 0 added holes, 0 changed sides, 0 changed coefficients
 45360 implications, 0 cliques
presolved problem has 45414 variables (54 bin, 0 int, 0 impl, 45360 cont) and 46254 constraints
  45360 constraints of type <varbound>
    894 constraints of type <linear>
Presolving Time: 1.92

 time | node  | left  |LP iter|LP it/n|mem/heur|mdpt |vars |cons |rows |cuts |sepa|confs|strbr|  dualbound   | primalbound  |  gap   | compl. 
p 2.6s|     1 |     0 |   840 |     - |   locks|   0 |  45k|  46k|  46k|   0 |  0 |   0 |   0 | 0.000000e+00 | 3.028445e+06 |    Inf | unknown
  3.4s|     1 |     0 |  3005 |     - |   458M |   0 |  45k|  46k|  46k|   0 |  0 |   0 |   0 | 3.003612e+06 | 3.028445e+06 |   0.83%| unknown
  3.8s|     1 |     0 |  3012 |     - |   471M |   0 |  45k|  46k|  46k|   1 |  1 |   0 |   0 | 3.003648e+06 | 3.028445e+06 |   0.83%| unknown
  4.0s|     1 |     0 |  3017 |     - |   477M |   0 |  45k|  46k|  46k|   2 |  2 |   0 |   0 | 3.003692e+06 | 3.028445e+06 |   0.82%| unknown
  4.3s|     1 |     0 |  3021 |     - |   484M |   0 |  45k|  46k|  46k|   3 |  3 |   0 |   0 | 3.003756e+06 | 3.028445e+06 |   0.82%| unknown
  4.5s|     1 |     0 |  3030 |     - |   489M |   0 |  45k|  46k|  46k|   4 |  4 |   0 |   0 | 3.003849e+06 | 3.028445e+06 |   0.82%| unknown
  4.8s|     1 |     0 |  3036 |     - |   495M |   0 |  45k|  46k|  46k|   6 |  5 |   0 |   0 | 3.003886e+06 | 3.028445e+06 |   0.82%| unknown
  5.0s|     1 |     0 |  3044 |     - |   501M |   0 |  45k|  46k|  46k|   8 |  6 |   0 |   0 | 3.003921e+06 | 3.028445e+06 |   0.82%| unknown
r 5.5s|     1 |     0 |  3228 |     - |intshift|   0 |  45k|  46k|  46k|   8 |  8 |   0 |   0 | 3.003921e+06 | 3.019418e+06 |   0.52%| unknown
d 6.1s|     1 |     0 |  3561 |     - |farkasdi|   0 |  45k|  46k|  46k|   0 |  8 |   0 |   0 | 3.003921e+06 | 3.008386e+06 |   0.15%| unknown
  6.8s|     1 |     0 |  3561 |     - |   519M |   0 |  45k|  46k|  46k|   8 |  8 |   0 |   0 | 3.003921e+06 | 3.008386e+06 |   0.15%| unknown
  7.1s|     1 |     0 |  3572 |     - |   520M |   0 |  45k|  46k|  46k|   9 |  9 |   0 |   0 | 3.003948e+06 | 3.008386e+06 |   0.15%| unknown
 11.4s|     1 |     2 |  3572 |     - |   545M |   0 |  45k|  46k|  46k|   9 | 10 |   0 |  20 | 3.004916e+06 | 3.008386e+06 |   0.12%| unknown
*17.1s|     3 |     2 |  3762 | 773.5 |strongbr|   2 |  45k|  46k|  46k|   9 |  1 |   0 |  51 | 3.004916e+06 | 3.008215e+06 |   0.11%| unknown
*18.6s|     5 |     2 |  3829 | 403.5 |strongbr|   3 |  45k|  46k|  46k|   9 |  1 |   0 |  61 | 3.004916e+06 | 3.007683e+06 |   0.09%|  18.96%
 time | node  | left  |LP iter|LP it/n|mem/heur|mdpt |vars |cons |rows |cuts |sepa|confs|strbr|  dualbound   | primalbound  |  gap   | compl. 
*18.7s|     5 |     2 |  3829 | 403.5 |strongbr|   3 |  45k|  46k|  46k|   9 |  1 |   0 |  63 | 3.004916e+06 | 3.007583e+06 |   0.09%|  18.96%
*18.9s|     5 |     2 |  3843 | 407.0 |    LP  |   3 |  45k|  46k|  46k|   9 |  2 |   0 |  64 | 3.004916e+06 | 3.007417e+06 |   0.08%|  18.96%
*25.1s|     8 |     3 |  4121 | 272.3 |strongbr|   3 |  45k|  46k|  46k|   9 |  1 |   0 |  88 | 3.005753e+06 | 3.006610e+06 |   0.03%|  33.69%
*25.8s|     9 |     2 |  4184 | 246.1 |strongbr|   3 |  45k|  46k|  46k|   9 |  1 |   0 |  93 | 3.005753e+06 | 3.006348e+06 |   0.02%|  38.28%

SCIP Status        : problem is solved [optimal solution found]
Solving Time (sec) : 28.55
Solving Nodes      : 11
Primal Bound       : +3.00634800000000e+06 (185 solutions)
Dual Bound         : +3.00634800000000e+06
Gap                : 0.00 %
Solve Status: optimal
Solve Time: 28.65 seconds
Objective Value: 3006348.00
